p tw 80 188
0 1
0 76
1 16
1 38
1 57
1 58
2 3
2 63
2 79
3 45
3 50
3 51
4 5
4 41
4 66
5 65
6 7
6 8
6 52
6 73
6 78
7 8
7 20
8 26
8 39
8 40
9 10
9 11
9 18
9 19
10 11
10 30
11 31
11 56
12 13
12 67
13 54
13 55
14 15
14 16
14 17
14 23
14 24
15 16
15 17
15 75
16 17
16 38
16 57
16 58
17 47
17 48
17 49
18 19
18 32
18 50
18 64
19 33
19 54
19 67
20 27
20 38
20 39
21 22
21 44
22 32
22 33
22 34
22 35
23 24
23 48
24 49
24 57
24 59
24 75
24 76
25 26
25 36
25 42
26 39
26 40
27 28
27 29
27 38
27 39
28 29
28 65
28 66
29 58
29 60
29 71
30 31
31 56
32 33
32 34
32 35
32 50
32 64
33 34
33 35
33 54
33 67
34 35
34 44
34 55
34 69
34 73
34 74
35 70
35 77
35 78
36 37
36 42
37 43
38 39
38 57
38 58
39 40
40 41
40 42
40 43
41 42
41 43
41 66
42 43
44 55
44 69
44 73
44 74
45 46
45 47
45 50
45 51
46 47
46 64
47 48
47 49
48 49
49 57
49 59
49 75
49 76
50 51
50 64
51 56
51 68
51 79
52 53
52 73
52 78
53 69
53 70
54 55
54 67
55 69
55 73
55 74
56 68
56 79
57 58
57 59
57 75
57 76
58 60
58 71
59 60
59 61
59 75
59 76
60 61
60 71
61 72
62 63
62 68
63 79
65 66
68 79
69 70
69 73
69 74
70 77
70 78
71 72
73 74
73 78
74 77
75 76
77 78
